70
1 0 16
2 0 14
2 1 6
3 0 15
3 1 10
3 2 18
4 0 8
4 1 11
4 2 6
4 3 10
5 0 18
5 1 2
5 2 16
5 3 9
5 4 15
6 0 9
6 1 12
6 2 1
6 3 13
6 4 17
6 5 17
7 0 6
7 1 15
7 2 4
7 3 9
7 4 18
7 5 1
7 6 2
8 0 20
8 1 11
8 2 4
8 3 16
8 4 17
8 5 20
8 6 5
8 7 1
9 0 11
9 1 14
9 2 2
9 3 15
9 4 14
9 5 9
9 6 4
9 7 13
9 8 4
10 0 7
10 1 17
10 2 3
10 3 3
10 4 16
10 5 1
10 6 2
10 7 16
10 8 6
10 9 10
11 0 13
11 1 16
11 2 16
11 3 10
11 4 17
11 5 20
11 6 19
11 7 13
11 8 10
11 9 20
11 10 20
12 0 12
12 1 11
12 2 4
12 3 3
12 4 16
12 5 14
12 6 12
12 7 9
12 8 20
12 9 9
12 10 5
12 11 3
13 0 11
13 1 12
13 2 15
13 3 9
13 4 6
13 5 14
13 6 16
13 7 3
13 8 2
13 9 4
13 10 11
13 11 11
13 12 13
14 0 3
14 1 20
14 2 16
14 3 1
14 4 7
14 5 14
14 6 6
14 7 2
14 8 20
14 9 20
14 10 8
14 11 10
14 12 3
14 13 5
15 0 7
15 1 8
15 2 19
15 3 2
15 4 20
15 5 17
15 6 2
15 7 4
15 8 11
15 9 1
15 10 6
15 11 19
15 12 8
15 13 14
15 14 19
16 0 10
16 1 16
16 2 18
16 3 10
16 4 3
16 5 16
16 6 1
16 7 5
16 8 6
16 9 13
16 10 12
16 11 12
16 12 2
16 13 4
16 14 5
16 15 17
17 0 4
17 1 4
17 2 13
17 3 3
17 4 14
17 5 19
17 6 2
17 7 5
17 8 10
17 9 11
17 10 16
17 11 1
17 12 1
17 13 17
17 14 1
17 15 3
17 16 4
18 0 4
18 1 11
18 2 18
18 3 16
18 4 2
18 5 11
18 6 12
18 7 14
18 8 11
18 9 16
18 10 2
18 11 15
18 12 3
18 13 15
18 14 9
18 15 8
18 16 6
18 17 11
19 0 15
19 1 8
19 2 3
19 3 14
19 4 7
19 5 11
19 6 1
19 7 17
19 8 19
19 9 14
19 10 14
19 11 15
19 12 3
19 13 20
19 14 3
19 15 12
19 16 5
19 17 18
19 18 16
20 0 10
20 1 13
20 2 19
20 3 2
20 4 1
20 5 6
20 6 9
20 7 19
20 8 4
20 9 2
20 10 11
20 11 13
20 12 15
20 13 9
20 14 15
20 15 6
20 16 1
20 17 14
20 18 17
20 19 5
21 0 20
21 1 3
21 2 14
21 3 20
21 4 11
21 5 16
21 6 9
21 7 11
21 8 12
21 9 15
21 10 6
21 11 17
21 12 14
21 13 14
21 14 6
21 15 15
21 16 2
21 17 4
21 18 5
21 19 16
21 20 20
22 0 9
22 1 7
22 2 3
22 3 1
22 4 7
22 5 5
22 6 14
22 7 4
22 8 12
22 9 10
22 10 20
22 11 9
22 12 1
22 13 5
22 14 14
22 15 9
22 16 15
22 17 7
22 18 14
22 19 3
22 20 17
22 21 20
23 0 16
23 1 9
23 2 7
23 3 16
23 4 3
23 5 17
23 6 5
23 7 19
23 8 7
23 9 12
23 10 4
23 11 18
23 12 1
23 13 8
23 14 19
23 15 6
23 16 14
23 17 16
23 18 20
23 19 17
23 20 3
23 21 6
23 22 16
24 0 8
24 1 5
24 2 7
24 3 13
24 4 9
24 5 18
24 6 2
24 7 15
24 8 7
24 9 13
24 10 11
24 11 16
24 12 3
24 13 15
24 14 5
24 15 14
24 16 14
24 17 9
24 18 6
24 19 3
24 20 15
24 21 19
24 22 17
24 23 16
25 0 16
25 1 18
25 2 14
25 3 12
25 4 2
25 5 20
25 6 13
25 7 6
25 8 1
25 9 12
25 10 17
25 11 12
25 12 4
25 13 10
25 14 18
25 15 16
25 16 10
25 17 8
25 18 17
25 19 6
25 20 11
25 21 17
25 22 18
25 23 19
25 24 14
26 0 20
26 1 1
26 2 12
26 3 10
26 4 5
26 5 20
26 6 8
26 7 19
26 8 11
26 9 14
26 10 2
26 11 10
26 12 5
26 13 4
26 14 18
26 15 10
26 16 11
26 17 3
26 18 5
26 19 11
26 20 6
26 21 16
26 22 8
26 23 8
26 24 6
26 25 4
27 0 4
27 1 6
27 2 2
27 3 1
27 4 13
27 5 3
27 6 13
27 7 2
27 8 12
27 9 12
27 10 9
27 11 18
27 12 16
27 13 2
27 14 13
27 15 11
27 16 10
27 17 16
27 18 15
27 19 2
27 20 6
27 21 10
27 22 2
27 23 11
27 24 2
27 25 15
27 26 15
28 0 6
28 1 14
28 2 11
28 3 20
28 4 2
28 5 5
28 6 16
28 7 12
28 8 3
28 9 4
28 10 1
28 11 11
28 12 18
28 13 6
28 14 8
28 15 7
28 16 19
28 17 15
28 18 11
28 19 7
28 20 12
28 21 12
28 22 1
28 23 4
28 24 13
28 25 19
28 26 17
28 27 14
29 0 11
29 1 19
29 2 5
29 3 8
29 4 20
29 5 11
29 6 15
29 7 20
29 8 14
29 9 1
29 10 2
29 11 5
29 12 18
29 13 14
29 14 14
29 15 5
29 16 16
29 17 2
29 18 9
29 19 8
29 20 11
29 21 17
29 22 4
29 23 4
29 24 12
29 25 16
29 26 12
29 27 1
29 28 5
30 0 9
30 1 4
30 2 12
30 3 9
30 4 18
30 5 2
30 6 18
30 7 11
30 8 2
30 9 15
30 10 14
30 11 5
30 12 5
30 13 17
30 14 2
30 15 15
30 16 14
30 17 15
30 18 9
30 19 20
30 20 1
30 21 14
30 22 20
30 23 20
30 24 3
30 25 11
30 26 10
30 27 7
30 28 19
30 29 12
31 0 4
31 1 18
31 2 13
31 3 19
31 4 19
31 5 2
31 6 20
31 7 5
31 8 12
31 9 6
31 10 14
31 11 6
31 12 20
31 13 3
31 14 15
31 15 1
31 16 9
31 17 17
31 18 1
31 19 20
31 20 12
31 21 1
31 22 2
31 23 2
31 24 13
31 25 2
31 26 2
31 27 5
31 28 9
31 29 16
31 30 4
32 0 1
32 1 15
32 2 8
32 3 1
32 4 18
32 5 3
32 6 16
32 7 4
32 8 17
32 9 11
32 10 1
32 11 10
32 12 14
32 13 6
32 14 13
32 15 1
32 16 16
32 17 7
32 18 17
32 19 9
32 20 20
32 21 1
32 22 18
32 23 6
32 24 8
32 25 6
32 26 2
32 27 2
32 28 19
32 29 10
32 30 9
32 31 8
33 0 8
33 1 19
33 2 12
33 3 20
33 4 20
33 5 7
33 6 1
33 7 14
33 8 8
33 9 20
33 10 18
33 11 12
33 12 16
33 13 20
33 14 13
33 15 12
33 16 1
33 17 14
33 18 10
33 19 10
33 20 18
33 21 6
33 22 11
33 23 3
33 24 19
33 25 14
33 26 9
33 27 10
33 28 4
33 29 13
33 30 9
33 31 12
33 32 7
34 0 15
34 1 13
34 2 3
34 3 6
34 4 9
34 5 6
34 6 9
34 7 6
34 8 11
34 9 20
34 10 8
34 11 9
34 12 10
34 13 8
34 14 17
34 15 11
34 16 14
34 17 13
34 18 7
34 19 4
34 20 10
34 21 17
34 22 20
34 23 8
34 24 14
34 25 8
34 26 3
34 27 2
34 28 15
34 29 3
34 30 19
34 31 14
34 32 16
34 33 11
35 0 10
35 1 13
35 2 8
35 3 15
35 4 2
35 5 16
35 6 8
35 7 7
35 8 14
35 9 13
35 10 16
35 11 8
35 12 18
35 13 8
35 14 19
35 15 18
35 16 10
35 17 16
35 18 8
35 19 5
35 20 1
35 21 14
35 22 6
35 23 3
35 24 11
35 25 2
35 26 14
35 27 1
35 28 7
35 29 2
35 30 1
35 31 20
35 32 16
35 33 8
35 34 13
36 0 2
36 1 12
36 2 10
36 3 16
36 4 12
36 5 5
36 6 2
36 7 12
36 8 20
36 9 8
36 10 18
36 11 16
36 12 9
36 13 10
36 14 6
36 15 18
36 16 13
36 17 18
36 18 10
36 19 3
36 20 4
36 21 4
36 22 18
36 23 15
36 24 10
36 25 8
36 26 17
36 27 13
36 28 2
36 29 18
36 30 6
36 31 8
36 32 7
36 33 5
36 34 12
36 35 4
37 0 14
37 1 15
37 2 2
37 3 11
37 4 10
37 5 2
37 6 9
37 7 15
37 8 17
37 9 20
37 10 3
37 11 5
37 12 3
37 13 13
37 14 9
37 15 18
37 16 11
37 17 14
37 18 20
37 19 18
37 20 9
37 21 19
37 22 12
37 23 12
37 24 4
37 25 16
37 26 3
37 27 15
37 28 12
37 29 1
37 30 3
37 31 11
37 32 19
37 33 9
37 34 3
37 35 14
37 36 10
38 0 19
38 1 6
38 2 12
38 3 14
38 4 2
38 5 8
38 6 6
38 7 16
38 8 6
38 9 10
38 10 2
38 11 1
38 12 5
38 13 15
38 14 19
38 15 7
38 16 6
38 17 5
38 18 18
38 19 15
38 20 5
38 21 17
38 22 2
38 23 17
38 24 1
38 25 4
38 26 12
38 27 9
38 28 2
38 29 20
38 30 12
38 31 2
38 32 12
38 33 2
38 34 14
38 35 12
38 36 12
38 37 5
39 0 14
39 1 9
39 2 20
39 3 18
39 4 19
39 5 13
39 6 18
39 7 18
39 8 1
39 9 15
39 10 6
39 11 12
39 12 13
39 13 18
39 14 15
39 15 15
39 16 6
39 17 14
39 18 10
39 19 10
39 20 3
39 21 3
39 22 8
39 23 4
39 24 14
39 25 8
39 26 7
39 27 1
39 28 7
39 29 17
39 30 8
39 31 3
39 32 8
39 33 8
39 34 6
39 35 19
39 36 6
39 37 14
39 38 14
40 0 11
40 1 16
40 2 6
40 3 20
40 4 5
40 5 11
40 6 9
40 7 1
40 8 18
40 9 2
40 10 5
40 11 7
40 12 3
40 13 8
40 14 11
40 15 8
40 16 20
40 17 11
40 18 8
40 19 17
40 20 7
40 21 1
40 22 3
40 23 11
40 24 4
40 25 17
40 26 8
40 27 7
40 28 19
40 29 18
40 30 3
40 31 20
40 32 16
40 33 11
40 34 6
40 35 10
40 36 7
40 37 4
40 38 10
40 39 4
41 0 8
41 1 7
41 2 14
41 3 3
41 4 12
41 5 3
41 6 6
41 7 10
41 8 3
41 9 4
41 10 16
41 11 19
41 12 6
41 13 14
41 14 9
41 15 15
41 16 8
41 17 1
41 18 5
41 19 9
41 20 12
41 21 20
41 22 2
41 23 19
41 24 13
41 25 15
41 26 13
41 27 12
41 28 7
41 29 5
41 30 8
41 31 1
41 32 12
41 33 5
41 34 6
41 35 17
41 36 5
41 37 2
41 38 7
41 39 19
41 40 10
42 0 6
42 1 13
42 2 7
42 3 14
42 4 19
42 5 17
42 6 11
42 7 20
42 8 5
42 9 11
42 10 2
42 11 2
42 12 3
42 13 11
42 14 10
42 15 13
42 16 4
42 17 12
42 18 18
42 19 15
42 20 12
42 21 6
42 22 9
42 23 10
42 24 15
42 25 3
42 26 12
42 27 4
42 28 5
42 29 8
42 30 20
42 31 2
42 32 12
42 33 6
42 34 12
42 35 19
42 36 9
42 37 3
42 38 13
42 39 10
42 40 16
42 41 14
43 0 4
43 1 17
43 2 18
43 3 7
43 4 17
43 5 17
43 6 6
43 7 11
43 8 2
43 9 1
43 10 1
43 11 3
43 12 9
43 13 15
43 14 12
43 15 16
43 16 5
43 17 6
43 18 19
43 19 16
43 20 8
43 21 13
43 22 19
43 23 20
43 24 12
43 25 14
43 26 6
43 27 16
43 28 1
43 29 9
43 30 15
43 31 10
43 32 14
43 33 3
43 34 18
43 35 18
43 36 12
43 37 8
43 38 7
43 39 13
43 40 5
43 41 5
43 42 2
44 0 7
44 1 14
44 2 9
44 3 17
44 4 4
44 5 14
44 6 12
44 7 9
44 8 8
44 9 6
44 10 9
44 11 19
44 12 18
44 13 14
44 14 13
44 15 18
44 16 13
44 17 12
44 18 2
44 19 1
44 20 17
44 21 10
44 22 3
44 23 4
44 24 17
44 25 4
44 26 9
44 27 17
44 28 17
44 29 3
44 30 19
44 31 13
44 32 12
44 33 14
44 34 16
44 35 3
44 36 7
44 37 2
44 38 8
44 39 17
44 40 3
44 41 18
44 42 5
44 43 17
45 0 14
45 1 3
45 2 8
45 3 16
45 4 13
45 5 20
45 6 5
45 7 15
45 8 18
45 9 18
45 10 8
45 11 9
45 12 1
45 13 4
45 14 20
45 15 16
45 16 11
45 17 9
45 18 16
45 19 20
45 20 12
45 21 20
45 22 18
45 23 15
45 24 4
45 25 19
45 26 18
45 27 16
45 28 3
45 29 12
45 30 16
45 31 3
45 32 7
45 33 5
45 34 20
45 35 11
45 36 14
45 37 6
45 38 3
45 39 5
45 40 8
45 41 18
45 42 18
45 43 8
45 44 3
46 0 6
46 1 8
46 2 18
46 3 6
46 4 4
46 5 12
46 6 7
46 7 19
46 8 13
46 9 13
46 10 3
46 11 8
46 12 16
46 13 17
46 14 8
46 15 4
46 16 3
46 17 18
46 18 13
46 19 20
46 20 13
46 21 1
46 22 2
46 23 11
46 24 20
46 25 1
46 26 16
46 27 14
46 28 10
46 29 12
46 30 18
46 31 11
46 32 19
46 33 8
46 34 18
46 35 14
46 36 16
46 37 18
46 38 16
46 39 17
46 40 4
46 41 9
46 42 2
46 43 1
46 44 3
46 45 15
47 0 13
47 1 12
47 2 3
47 3 20
47 4 16
47 5 15
47 6 13
47 7 5
47 8 4
47 9 5
47 10 10
47 11 2
47 12 11
47 13 12
47 14 17
47 15 8
47 16 10
47 17 1
47 18 9
47 19 17
47 20 18
47 21 4
47 22 11
47 23 15
47 24 19
47 25 16
47 26 8
47 27 19
47 28 20
47 29 8
47 30 16
47 31 1
47 32 16
47 33 3
47 34 3
47 35 19
47 36 3
47 37 4
47 38 12
47 39 6
47 40 11
47 41 7
47 42 4
47 43 3
47 44 19
47 45 19
47 46 11
48 0 16
48 1 9
48 2 13
48 3 5
48 4 9
48 5 10
48 6 15
48 7 16
48 8 11
48 9 19
48 10 12
48 11 1
48 12 19
48 13 3
48 14 18
48 15 8
48 16 10
48 17 10
48 18 11
48 19 3
48 20 1
48 21 7
48 22 13
48 23 19
48 24 10
48 25 1
48 26 5
48 27 19
48 28 12
48 29 1
48 30 10
48 31 3
48 32 16
48 33 1
48 34 9
48 35 6
48 36 13
48 37 6
48 38 16
48 39 6
48 40 20
48 41 17
48 42 19
48 43 11
48 44 20
48 45 1
48 46 13
48 47 7
49 0 12
49 1 2
49 2 13
49 3 11
49 4 9
49 5 11
49 6 11
49 7 15
49 8 18
49 9 6
49 10 7
49 11 7
49 12 19
49 13 13
49 14 15
49 15 4
49 16 11
49 17 1
49 18 5
49 19 5
49 20 3
49 21 19
49 22 14
49 23 6
49 24 9
49 25 19
49 26 7
49 27 2
49 28 6
49 29 16
49 30 8
49 31 7
49 32 7
49 33 20
49 34 16
49 35 16
49 36 6
49 37 16
49 38 7
49 39 14
49 40 13
49 41 11
49 42 13
49 43 14
49 44 16
49 45 15
49 46 13
49 47 11
49 48 5
50 0 16
50 1 11
50 2 14
50 3 1
50 4 12
50 5 20
50 6 3
50 7 3
50 8 20
50 9 14
50 10 19
50 11 11
50 12 20
50 13 6
50 14 12
50 15 4
50 16 18
50 17 18
50 18 7
50 19 4
50 20 3
50 21 7
50 22 14
50 23 2
50 24 7
50 25 10
50 26 16
50 27 10
50 28 13
50 29 9
50 30 15
50 31 17
50 32 14
50 33 1
50 34 13
50 35 6
50 36 1
50 37 15
50 38 7
50 39 14
50 40 9
50 41 6
50 42 15
50 43 11
50 44 12
50 45 11
50 46 1
50 47 17
50 48 1
50 49 20
51 0 5
51 1 5
51 2 2
51 3 9
51 4 19
51 5 8
51 6 10
51 7 11
51 8 14
51 9 2
51 10 9
51 11 8
51 12 4
51 13 16
51 14 4
51 15 14
51 16 13
51 17 16
51 18 4
51 19 12
51 20 17
51 21 20
51 22 18
51 23 10
51 24 16
51 25 2
51 26 11
51 27 8
51 28 13
51 29 18
51 30 12
51 31 8
51 32 2
51 33 14
51 34 13
51 35 18
51 36 4
51 37 8
51 38 11
51 39 8
51 40 10
51 41 18
51 42 3
51 43 10
51 44 13
51 45 1
51 46 7
51 47 7
51 48 1
51 49 17
51 50 4
52 0 7
52 1 7
52 2 20
52 3 3
52 4 10
52 5 5
52 6 15
52 7 14
52 8 15
52 9 17
52 10 11
52 11 15
52 12 19
52 13 12
52 14 15
52 15 17
52 16 3
52 17 5
52 18 5
52 19 19
52 20 5
52 21 2
52 22 7
52 23 19
52 24 10
52 25 3
52 26 10
52 27 19
52 28 11
52 29 8
52 30 3
52 31 13
52 32 20
52 33 14
52 34 8
52 35 12
52 36 5
52 37 12
52 38 13
52 39 11
52 40 19
52 41 11
52 42 14
52 43 3
52 44 4
52 45 14
52 46 5
52 47 17
52 48 11
52 49 20
52 50 10
52 51 9
53 0 1
53 1 20
53 2 18
53 3 12
53 4 10
53 5 11
53 6 20
53 7 17
53 8 5
53 9 14
53 10 12
53 11 3
53 12 5
53 13 19
53 14 12
53 15 14
53 16 19
53 17 15
53 18 4
53 19 18
53 20 15
53 21 13
53 22 9
53 23 5
53 24 4
53 25 19
53 26 14
53 27 8
53 28 4
53 29 17
53 30 10
53 31 6
53 32 18
53 33 3
53 34 14
53 35 15
53 36 13
53 37 17
53 38 2
53 39 5
53 40 16
53 41 10
53 42 17
53 43 8
53 44 10
53 45 17
53 46 6
53 47 17
53 48 2
53 49 7
53 50 18
53 51 19
53 52 16
54 0 3
54 1 19
54 2 7
54 3 17
54 4 14
54 5 17
54 6 19
54 7 14
54 8 18
54 9 10
54 10 11
54 11 3
54 12 9
54 13 7
54 14 20
54 15 3
54 16 6
54 17 18
54 18 20
54 19 10
54 20 11
54 21 8
54 22 7
54 23 10
54 24 1
54 25 6
54 26 19
54 27 5
54 28 2
54 29 4
54 30 13
54 31 15
54 32 12
54 33 6
54 34 1
54 35 7
54 36 8
54 37 9
54 38 19
54 39 17
54 40 7
54 41 4
54 42 7
54 43 19
54 44 2
54 45 14
54 46 8
54 47 18
54 48 13
54 49 11
54 50 15
54 51 10
54 52 13
54 53 1
55 0 17
55 1 2
55 2 7
55 3 10
55 4 14
55 5 13
55 6 4
55 7 3
55 8 18
55 9 14
55 10 5
55 11 2
55 12 11
55 13 6
55 14 18
55 15 4
55 16 5
55 17 12
55 18 13
55 19 14
55 20 2
55 21 1
55 22 12
55 23 15
55 24 13
55 25 7
55 26 15
55 27 9
55 28 10
55 29 11
55 30 6
55 31 1
55 32 11
55 33 6
55 34 19
55 35 9
55 36 15
55 37 1
55 38 4
55 39 5
55 40 18
55 41 6
55 42 8
55 43 11
55 44 16
55 45 19
55 46 18
55 47 9
55 48 5
55 49 16
55 50 19
55 51 5
55 52 20
55 53 15
55 54 7
56 0 5
56 1 5
56 2 3
56 3 8
56 4 11
56 5 11
56 6 17
56 7 15
56 8 10
56 9 10
56 10 13
56 11 18
56 12 3
56 13 1
56 14 13
56 15 15
56 16 5
56 17 11
56 18 5
56 19 13
56 20 16
56 21 18
56 22 17
56 23 16
56 24 17
56 25 8
56 26 15
56 27 2
56 28 17
56 29 3
56 30 10
56 31 15
56 32 11
56 33 3
56 34 2
56 35 1
56 36 13
56 37 1
56 38 12
56 39 7
56 40 8
56 41 3
56 42 5
56 43 3
56 44 19
56 45 1
56 46 14
56 47 12
56 48 17
56 49 8
56 50 7
56 51 2
56 52 5
56 53 5
56 54 11
56 55 9
57 0 7
57 1 1
57 2 6
57 3 7
57 4 7
57 5 15
57 6 16
57 7 9
57 8 11
57 9 10
57 10 17
57 11 14
57 12 16
57 13 3
57 14 3
57 15 18
57 16 7
57 17 17
57 18 11
57 19 20
57 20 4
57 21 3
57 22 7
57 23 20
57 24 14
57 25 6
57 26 1
57 27 18
57 28 17
57 29 2
57 30 9
57 31 4
57 32 18
57 33 5
57 34 10
57 35 4
57 36 18
57 37 11
57 38 18
57 39 16
57 40 3
57 41 11
57 42 12
57 43 9
57 44 3
57 45 6
57 46 10
57 47 17
57 48 6
57 49 20
57 50 3
57 51 7
57 52 4
57 53 17
57 54 9
57 55 17
57 56 16
58 0 8
58 1 6
58 2 3
58 3 3
58 4 9
58 5 11
58 6 2
58 7 3
58 8 13
58 9 4
58 10 18
58 11 19
58 12 3
58 13 14
58 14 20
58 15 5
58 16 6
58 17 2
58 18 14
58 19 16
58 20 11
58 21 2
58 22 11
58 23 6
58 24 7
58 25 6
58 26 19
58 27 15
58 28 19
58 29 5
58 30 3
58 31 13
58 32 13
58 33 9
58 34 11
58 35 3
58 36 14
58 37 7
58 38 8
58 39 7
58 40 20
58 41 5
58 42 15
58 43 1
58 44 1
58 45 7
58 46 7
58 47 12
58 48 5
58 49 2
58 50 7
58 51 14
58 52 15
58 53 16
58 54 13
58 55 8
58 56 8
58 57 1
59 0 14
59 1 4
59 2 2
59 3 7
59 4 4
59 5 16
59 6 17
59 7 17
59 8 8
59 9 16
59 10 12
59 11 8
59 12 15
59 13 1
59 14 5
59 15 15
59 16 6
59 17 8
59 18 4
59 19 2
59 20 13
59 21 7
59 22 11
59 23 12
59 24 6
59 25 3
59 26 1
59 27 9
59 28 5
59 29 8
59 30 10
59 31 17
59 32 18
59 33 20
59 34 18
59 35 4
59 36 17
59 37 15
59 38 3
59 39 16
59 40 1
59 41 19
59 42 17
59 43 6
59 44 5
59 45 18
59 46 19
59 47 8
59 48 15
59 49 17
59 50 3
59 51 6
59 52 9
59 53 20
59 54 2
59 55 2
59 56 8
59 57 16
59 58 18
60 0 17
60 1 7
60 2 12
60 3 5
60 4 6
60 5 11
60 6 10
60 7 1
60 8 4
60 9 17
60 10 15
60 11 5
60 12 3
60 13 3
60 14 4
60 15 1
60 16 9
60 17 5
60 18 9
60 19 12
60 20 16
60 21 19
60 22 14
60 23 5
60 24 16
60 25 4
60 26 2
60 27 3
60 28 16
60 29 1
60 30 5
60 31 12
60 32 5
60 33 17
60 34 8
60 35 15
60 36 2
60 37 13
60 38 1
60 39 19
60 40 6
60 41 2
60 42 8
60 43 11
60 44 6
60 45 15
60 46 11
60 47 7
60 48 12
60 49 20
60 50 19
60 51 16
60 52 10
60 53 2
60 54 4
60 55 2
60 56 20
60 57 16
60 58 4
60 59 5
61 0 3
61 1 5
61 2 2
61 3 4
61 4 11
61 5 3
61 6 11
61 7 17
61 8 11
61 9 9
61 10 4
61 11 15
61 12 16
61 13 17
61 14 14
61 15 15
61 16 15
61 17 20
61 18 3
61 19 8
61 20 19
61 21 10
61 22 1
61 23 10
61 24 13
61 25 14
61 26 15
61 27 16
61 28 11
61 29 11
61 30 6
61 31 17
61 32 14
61 33 1
61 34 10
61 35 7
61 36 14
61 37 5
61 38 8
61 39 11
61 40 13
61 41 17
61 42 3
61 43 15
61 44 3
61 45 3
61 46 10
61 47 15
61 48 1
61 49 19
61 50 8
61 51 16
61 52 17
61 53 8
61 54 13
61 55 7
61 56 19
61 57 18
61 58 5
61 59 2
61 60 3
62 0 15
62 1 19
62 2 5
62 3 19
62 4 16
62 5 18
62 6 20
62 7 13
62 8 3
62 9 1
62 10 2
62 11 12
62 12 9
62 13 18
62 14 11
62 15 13
62 16 20
62 17 14
62 18 4
62 19 10
62 20 2
62 21 4
62 22 7
62 23 6
62 24 8
62 25 13
62 26 3
62 27 4
62 28 19
62 29 5
62 30 16
62 31 6
62 32 13
62 33 18
62 34 4
62 35 19
62 36 5
62 37 2
62 38 2
62 39 3
62 40 17
62 41 19
62 42 8
62 43 18
62 44 19
62 45 12
62 46 9
62 47 9
62 48 13
62 49 13
62 50 14
62 51 20
62 52 14
62 53 4
62 54 8
62 55 3
62 56 13
62 57 17
62 58 17
62 59 5
62 60 3
62 61 9
63 0 1
63 1 1
63 2 3
63 3 18
63 4 20
63 5 7
63 6 2
63 7 15
63 8 13
63 9 10
63 10 20
63 11 16
63 12 6
63 13 14
63 14 12
63 15 16
63 16 14
63 17 2
63 18 20
63 19 1
63 20 20
63 21 15
63 22 19
63 23 7
63 24 19
63 25 13
63 26 15
63 27 9
63 28 17
63 29 14
63 30 11
63 31 13
63 32 11
63 33 19
63 34 12
63 35 8
63 36 15
63 37 19
63 38 2
63 39 6
63 40 20
63 41 6
63 42 20
63 43 4
63 44 15
63 45 20
63 46 4
63 47 14
63 48 15
63 49 9
63 50 13
63 51 19
63 52 10
63 53 2
63 54 4
63 55 15
63 56 1
63 57 3
63 58 7
63 59 3
63 60 11
63 61 17
63 62 18
64 0 10
64 1 15
64 2 12
64 3 10
64 4 10
64 5 16
64 6 9
64 7 8
64 8 14
64 9 6
64 10 5
64 11 5
64 12 10
64 13 6
64 14 3
64 15 10
64 16 12
64 17 11
64 18 7
64 19 9
64 20 2
64 21 4
64 22 4
64 23 8
64 24 9
64 25 4
64 26 3
64 27 6
64 28 16
64 29 7
64 30 3
64 31 1
64 32 4
64 33 9
64 34 13
64 35 11
64 36 11
64 37 17
64 38 11
64 39 16
64 40 5
64 41 12
64 42 19
64 43 9
64 44 14
64 45 3
64 46 17
64 47 11
64 48 17
64 49 18
64 50 12
64 51 10
64 52 3
64 53 7
64 54 1
64 55 6
64 56 3
64 57 8
64 58 17
64 59 15
64 60 20
64 61 3
64 62 7
64 63 5
65 0 9
65 1 15
65 2 6
65 3 19
65 4 1
65 5 6
65 6 7
65 7 20
65 8 5
65 9 4
65 10 14
65 11 19
65 12 18
65 13 10
65 14 14
65 15 17
65 16 12
65 17 12
65 18 9
65 19 14
65 20 5
65 21 10
65 22 19
65 23 16
65 24 1
65 25 11
65 26 20
65 27 16
65 28 5
65 29 8
65 30 19
65 31 8
65 32 1
65 33 10
65 34 9
65 35 15
65 36 8
65 37 14
65 38 8
65 39 2
65 40 19
65 41 18
65 42 3
65 43 1
65 44 10
65 45 19
65 46 3
65 47 16
65 48 10
65 49 16
65 50 14
65 51 17
65 52 14
65 53 14
65 54 11
65 55 20
65 56 11
65 57 14
65 58 14
65 59 9
65 60 9
65 61 10
65 62 4
65 63 6
65 64 14
66 0 9
66 1 3
66 2 2
66 3 15
66 4 12
66 5 6
66 6 9
66 7 5
66 8 8
66 9 6
66 10 2
66 11 13
66 12 14
66 13 5
66 14 15
66 15 12
66 16 6
66 17 5
66 18 20
66 19 1
66 20 2
66 21 9
66 22 16
66 23 3
66 24 8
66 25 5
66 26 1
66 27 14
66 28 5
66 29 18
66 30 2
66 31 19
66 32 15
66 33 13
66 34 11
66 35 12
66 36 8
66 37 14
66 38 9
66 39 9
66 40 9
66 41 1
66 42 19
66 43 3
66 44 15
66 45 7
66 46 10
66 47 2
66 48 16
66 49 18
66 50 15
66 51 12
66 52 20
66 53 3
66 54 20
66 55 5
66 56 19
66 57 14
66 58 10
66 59 6
66 60 16
66 61 20
66 62 6
66 63 17
66 64 1
66 65 17
67 0 5
67 1 14
67 2 2
67 3 16
67 4 9
67 5 1
67 6 2
67 7 5
67 8 5
67 9 7
67 10 6
67 11 1
67 12 9
67 13 20
67 14 4
67 15 7
67 16 9
67 17 5
67 18 1
67 19 12
67 20 12
67 21 14
67 22 11
67 23 19
67 24 13
67 25 4
67 26 3
67 27 11
67 28 5
67 29 13
67 30 15
67 31 9
67 32 8
67 33 17
67 34 19
67 35 8
67 36 2
67 37 11
67 38 2
67 39 4
67 40 11
67 41 15
67 42 20
67 43 14
67 44 20
67 45 2
67 46 18
67 47 14
67 48 11
67 49 7
67 50 16
67 51 6
67 52 2
67 53 17
67 54 16
67 55 5
67 56 9
67 57 2
67 58 8
67 59 6
67 60 7
67 61 16
67 62 11
67 63 11
67 64 6
67 65 15
67 66 12
68 0 8
68 1 15
68 2 6
68 3 3
68 4 11
68 5 15
68 6 15
68 7 3
68 8 10
68 9 13
68 10 13
68 11 19
68 12 7
68 13 19
68 14 11
68 15 17
68 16 14
68 17 14
68 18 3
68 19 16
68 20 2
68 21 6
68 22 1
68 23 19
68 24 15
68 25 8
68 26 12
68 27 6
68 28 6
68 29 17
68 30 10
68 31 6
68 32 19
68 33 14
68 34 3
68 35 4
68 36 4
68 37 6
68 38 15
68 39 3
68 40 2
68 41 8
68 42 3
68 43 11
68 44 17
68 45 1
68 46 6
68 47 19
68 48 6
68 49 16
68 50 1
68 51 12
68 52 2
68 53 6
68 54 4
68 55 18
68 56 14
68 57 15
68 58 17
68 59 15
68 60 20
68 61 13
68 62 14
68 63 5
68 64 17
68 65 8
68 66 5
68 67 11
69 0 16
69 1 12
69 2 9
69 3 12
69 4 9
69 5 3
69 6 2
69 7 4
69 8 11
69 9 5
69 10 18
69 11 12
69 12 7
69 13 20
69 14 14
69 15 6
69 16 13
69 17 13
69 18 15
69 19 6
69 20 1
69 21 14
69 22 20
69 23 9
69 24 13
69 25 10
69 26 1
69 27 1
69 28 11
69 29 16
69 30 18
69 31 10
69 32 17
69 33 1
69 34 3
69 35 14
69 36 8
69 37 13
69 38 17
69 39 19
69 40 10
69 41 5
69 42 3
69 43 4
69 44 9
69 45 13
69 46 14
69 47 9
69 48 13
69 49 13
69 50 12
69 51 5
69 52 15
69 53 14
69 54 10
69 55 7
69 56 14
69 57 9
69 58 3
69 59 13
69 60 18
69 61 11
69 62 8
69 63 4
69 64 5
69 65 12
69 66 2
69 67 10
69 68 16
